17	4	3
17	14	16	17	51	26	31	
0	0	0	0	0	10	4	8	1	3	8	3	2	3	4
10	7	9	0	10	9	6	2	5	5	8	3	6	9	13
5	0	1	8	0	1	6	2	10	8	4	2	5	8
7	8	5	7	1	4	1	7	1	4	5	2	10	16
5	1	8	0	0	1	2	10	8	3	1	3	7	15	17
100	9	10	9	6	7	3	5	5	4	7	1	17
150	4	0	2	2	3	3	3	4	7	7	2	12	17
50	10	3	9	5	2	7	3	4	7	1	3	12	14	17
50	0	0	1	3	8	10	1	4	1	5	2	11	17
125	9	1	4	0	9	1	7	8	9	9	2	11	17
225	0	0	8	7	9	6	2	3	10	5	1	17
25	10	8	8	0	10	3	7	2	7	4	1	16
8	9	0	6	8	9	8	1	1	2	8	2	17	17
6	5	5	9	0	2	9	7	3	3	8	2	16	17
10	7	0	3	8	7	1	9	3	9	7	1	17
9	2	10	4	2	2	7	3	4	10	2	1	17
0	0	0	0	0	9	9	5	6	10	1	0
